c Result of efficient AIG-to-CNF conversion using package CNF
p cnf 143 430
-2 -80 102 0
-2 101 102 0
-2 -3 102 0
2 -102 0
2 3 80 -101 0
3 -4 -69 0
-3 4 0
-3 69 0
4 -5 -66 0
-4 5 0
-4 66 0
5 6 -46 0
5 -6 46 0
-5 -6 -46 0
-5 6 46 0
6 -7 -21 0
-6 7 0
-6 21 0
7 -128 -8 0
-7 128 0
-7 8 0
8 129 -9 0
8 -129 9 0
-8 -129 -9 0
-8 129 9 0
9 130 -10 0
9 -130 10 0
-9 -130 -10 0
-9 130 10 0
10 131 -11 0
10 -131 11 0
-10 -131 -11 0
-10 131 11 0
11 132 -12 0
11 -132 12 0
-11 -132 -12 0
-11 132 12 0
12 133 -13 0
12 -133 13 0
-12 -133 -13 0
-12 133 13 0
13 134 -14 0
13 -134 14 0
-13 -134 -14 0
-13 134 14 0
14 135 -15 0
14 -135 15 0
-14 -135 -15 0
-14 135 15 0
15 136 -16 0
15 -136 16 0
-15 -136 -16 0
-15 136 16 0
16 137 -17 0
16 -137 17 0
-16 -137 -17 0
-16 137 17 0
17 -138 18 0
17 138 -18 0
-17 138 18 0
-17 -138 -18 0
-18 -19 -20 0
-18 19 20 0
18 19 -20 0
18 -19 20 0
19 141 -142 0
19 -141 142 0
-19 -141 -142 0
-19 141 142 0
20 139 -140 0
20 -139 140 0
-20 -139 -140 0
-20 139 140 0
21 22 -23 0
21 -22 23 0
-21 -22 -23 0
-21 22 23 0
22 -129 -9 0
-22 129 0
-22 9 0
23 24 -25 0
23 -24 25 0
-23 -24 -25 0
-23 24 25 0
24 -130 -10 0
-24 130 0
-24 10 0
25 26 -27 0
25 -26 27 0
-25 -26 -27 0
-25 26 27 0
26 -131 -11 0
-26 131 0
-26 11 0
27 28 -29 0
27 -28 29 0
-27 -28 -29 0
-27 28 29 0
28 -132 -12 0
-28 132 0
-28 12 0
29 30 -31 0
29 -30 31 0
-29 -30 -31 0
-29 30 31 0
30 -133 -13 0
-30 133 0
-30 13 0
31 32 -33 0
31 -32 33 0
-31 -32 -33 0
-31 32 33 0
32 -134 -14 0
-32 134 0
-32 14 0
33 34 -35 0
33 -34 35 0
-33 -34 -35 0
-33 34 35 0
34 -135 -15 0
-34 135 0
-34 15 0
35 36 -37 0
35 -36 37 0
-35 -36 -37 0
-35 36 37 0
36 -136 -16 0
-36 136 0
-36 16 0
37 38 -39 0
37 -38 39 0
-37 -38 -39 0
-37 38 39 0
38 -137 -17 0
-38 137 0
-38 17 0
39 40 -41 0
39 -40 41 0
-39 -40 -41 0
-39 40 41 0
40 -138 -18 0
-40 138 0
-40 18 0
41 -43 44 0
41 43 -44 0
41 -42 43 -45 0
-41 -43 -44 0
-41 43 44 45 0
-41 42 43 44 0
-42 141 142 0
42 -141 0
42 -142 0
43 -141 -142 0
-43 141 0
-43 142 0
44 -139 -140 0
-44 139 0
-44 140 0
-45 139 140 0
45 -139 0
45 -140 0
46 47 -48 0
46 -47 48 0
-46 -47 -48 0
-46 47 48 0
47 -22 -23 0
-47 22 0
-47 23 0
48 49 -50 0
48 -49 50 0
-48 -49 -50 0
-48 49 50 0
49 -24 -25 0
-49 24 0
-49 25 0
50 51 -52 0
50 -51 52 0
-50 -51 -52 0
-50 51 52 0
51 -26 -27 0
-51 26 0
-51 27 0
52 53 -54 0
52 -53 54 0
-52 -53 -54 0
-52 53 54 0
53 -28 -29 0
-53 28 0
-53 29 0
54 55 -56 0
54 -55 56 0
-54 -55 -56 0
-54 55 56 0
55 -30 -31 0
-55 30 0
-55 31 0
56 57 -58 0
56 -57 58 0
-56 -57 -58 0
-56 57 58 0
57 -32 -33 0
-57 32 0
-57 33 0
58 -59 60 0
58 59 -60 0
-58 59 60 0
-58 -59 -60 0
59 -34 -35 0
-59 34 0
-59 35 0
-60 61 62 63 0
60 -63 0
60 -62 0
60 -61 0
61 -38 -39 0
-61 38 0
-61 39 0
62 -36 -37 0
-62 36 0
-62 37 0
-63 64 65 0
63 -64 0
63 -65 0
64 -139 -140 -141 -142 0
-64 142 0
-64 139 0
-64 141 0
-64 140 0
65 -40 -41 0
-65 40 0
-65 41 0
66 -67 -68 0
-66 67 0
-66 68 0
67 7 -21 0
67 -7 21 0
-67 -7 -21 0
-67 7 21 0
68 -127 128 -8 0
68 -127 -128 8 0
-68 127 0
-68 -128 -8 0
-68 128 8 0
-69 70 71 72 0
69 -72 0
69 -71 0
69 -70 0
70 -47 -48 0
-70 47 0
-70 48 0
71 -6 -46 0
-71 6 0
-71 46 0
-72 73 74 75 0
72 -75 0
72 -74 0
72 -73 0
73 -51 -52 0
-73 51 0
-73 52 0
74 -49 -50 0
-74 49 0
-74 50 0
-75 76 77 78 79 0
75 -79 0
75 -78 0
75 -76 0
75 -77 0
76 -59 -60 0
-76 59 0
-76 60 0
77 -57 -58 0
-77 57 0
-77 58 0
78 -55 -56 0
-78 55 0
-78 56 0
79 -53 -54 0
-79 53 0
-79 54 0
-80 58 81 99 0
-80 58 94 99 0
-80 81 94 99 0
80 -58 -94 0
80 -58 -81 0
80 -99 0
80 -81 -94 0
-81 82 83 91 0
-81 82 84 91 0
-81 83 84 91 0
81 -83 -84 0
81 -82 -83 0
81 -91 0
81 -82 -84 0
-82 127 128 130 0
-82 127 129 130 0
-82 128 129 130 0
-82 127 128 129 0
-82 -127 -128 -129 -130 0
82 127 -128 -129 0
82 -127 -129 130 0
82 -128 129 -130 0
82 -127 128 -130 0
82 127 -129 -130 0
82 -127 -128 129 0
-83 131 132 134 0
-83 131 133 134 0
-83 132 133 134 0
-83 131 132 133 0
-83 -131 -132 -133 -134 0
83 131 -132 -133 0
83 -131 -133 134 0
83 -132 133 -134 0
83 -131 132 -134 0
83 131 -133 -134 0
83 -131 -132 133 0
84 -85 -88 0
-84 85 0
-84 88 0
85 86 -87 0
85 -86 87 0
-85 -86 -87 0
-85 86 87 0
86 127 -128 0
86 -127 128 0
-86 -127 -128 0
-86 127 128 0
87 129 -130 0
87 -129 130 0
-87 -129 -130 0
-87 129 130 0
88 89 -90 0
88 -89 90 0
-88 -89 -90 0
-88 89 90 0
89 131 -132 0
89 -131 132 0
-89 -131 -132 0
-89 131 132 0
90 133 -134 0
90 -133 134 0
-90 -133 -134 0
-90 133 134 0
91 92 -93 0
91 -92 93 0
-91 -92 -93 0
-91 92 93 0
92 -127 -128 -129 -130 0
-92 130 0
-92 127 0
-92 129 0
-92 128 0
93 -131 -132 -133 -134 0
-93 134 0
-93 131 0
-93 133 0
-93 132 0
94 -33 -95 0
94 -95 -97 0
94 -33 -97 0
-94 33 97 0
-94 95 97 0
-94 33 95 0
95 84 -96 0
95 -84 96 0
-95 -84 -96 0
-95 84 96 0
96 -82 83 0
96 82 -83 0
-96 82 83 0
-96 -82 -83 0
97 -14 -98 0
-97 14 0
-97 98 0
98 85 -88 0
98 -85 88 0
-98 -85 -88 0
-98 85 88 0
99 -76 3 0
99 3 -100 0
-99 -3 0
-99 76 100 0
100 -92 -93 0
-100 92 0
-100 93 0
-101 4 69 0
101 -4 0
101 -69 0
-102 -101 103 107 0
-102 80 103 107 0
102 -107 0
102 -103 0
102 -80 101 0
103 -68 104 0
103 -14 98 -104 0
103 68 -104 0
103 14 -68 -98 0
-103 68 104 0
-103 14 -68 98 -104 0
-103 -14 -68 -98 -104 0
104 67 -105 0
104 -67 105 0
-104 -67 -105 0
-104 67 105 0
105 97 -106 0
105 -97 106 0
-105 -97 -106 0
-105 97 106 0
106 33 -95 0
106 -33 95 0
-106 -33 -95 0
-106 33 95 0
-107 -108 -110 0
-107 108 110 0
107 108 -110 0
107 -108 110 0
-108 -94 -109 0
-108 94 109 0
108 94 -109 0
108 -94 109 0
109 -58 81 0
109 58 -81 0
-109 58 81 0
-109 -58 -81 0
110 5 -66 0
110 -5 66 0
-110 -5 -66 0
-110 5 66 0
-143 0
2 0

